	178420.0	0.0


	178420.0	0.0


	178635.0	0.0
	178635.0	0.0


	171448.0	9000.0
	184913.0	0.0


	146096.0	36000.0
	155597.0	21000.0
	164539.0	15000.0
	171078.0	9000.0


	176010.0	21000.0
	176010.0	21000.0


	154758.0	18000.0
	178635.0	0.0


	160460.0	21000.0
	171078.0	9000.0
	189072.0	0.0
	189072.0	0.0


	155312.0	24000.0
	162002.0	21000.0
	193866.0	0.0
	193866.0	0.0


	155312.0	24000.0
	162002.0	21000.0
	168659.0	12000.0
	199010.0	9000.0


